language ESSENCE' 1.0

letting n_classes be 25
letting n_options be 5
letting n_cars be 200
letting quantity_Function1D be
        [12, 1, 32, 3, 2, 17, 21, 4, 2, 3, 19, 3, 3, 6, 1, 1, 30, 2, 12, 1, 9, 4, 5, 5, 2; int(1..25)]
letting usage_RelationAsSet_Explicit_1 be
        [1, 1, 2, 2, 2, 3, 4, 4, 4, 5, 5, 5, 6, 7, 8, 8, 9, 9, 9, 10, 10, 10, 11, 11, 12, 12, 13, 13, 14, 14, 15, 15,
         15, 16, 16, 16, 16, 17, 18, 18, 19, 19, 20, 20, 20, 20, 21, 22, 22, 22, 23, 23, 23, 24, 24, 25;
             int(1..56)]
letting usage_RelationAsSet_Explicit_2 be
        [2, 3, 3, 4, 5, 4, 2, 4, 5, 1, 2, 3, 3, 1, 1, 5, 1, 3, 4, 1, 2, 5, 1, 2, 3, 4, 2, 5, 1, 3, 1, 3, 5, 2, 3, 4, 5,
         2, 3, 5, 2, 4, 1, 2, 4, 5, 5, 2, 3, 4, 1, 2, 4, 1, 4, 5;
             int(1..56)]
letting blksize_Function1D be [2, 3, 3, 5, 5; int(1..5)]
letting maxcars_Function1D be [1, 2, 1, 2, 1; int(1..5)]
letting fin1 be 25
letting fin2 be 32
letting fin3 be 5
letting fin4 be 2
letting fin5 be 5
letting fin6 be 5
letting fin7 be 56
